#######################################################
#CASTEP cell file: ./calculations/NVT_finer/12/sio2.cell
#Created using the Atomic Simulation Environment (ASE)#
#######################################################

%BLOCK LATTICE_CART
12.678213  0.000000  0.000000
 0.000000 12.678213  0.000000
 0.000000  0.000000 12.678213
%ENDBLOCK LATTICE_CART

%BLOCK POSITIONS_ABS
Si  0.563779  9.969430  6.672380
Si  3.813170  2.698560 11.492400
Si  4.695870  8.141120  6.755720
Si  0.707668  5.423030  8.999750
Si  9.060380  4.223700  1.751320
Si  2.652750  5.683460  6.451570
Si  2.662120 10.380600 11.435800
Si 10.216300 11.894100 11.539300
Si 11.035500  7.459810  2.918590
Si 10.885800  1.496850  3.677150
Si  5.476920 10.893100  0.031320
Si  6.062430  1.284790  0.335593
Si  7.346470  5.787790 12.520700
Si  7.439660  1.767000  5.452370
Si  2.847980  5.452760 11.073100
Si  2.323390  9.884630  4.075400
Si 11.641900  7.775390  8.303740
Si  2.599270  2.561740  6.469330
Si  1.784600  1.635160  9.331310
Si  4.560180  0.287669  7.088520
Si  1.014410  2.597540  3.745260
Si  1.392000  2.194680  0.872822
Si  6.647860  2.040940  8.238010
Si  9.864040  8.793330 10.645100
Si  9.549910  4.016760  4.725640
Si  6.985440  8.550530 11.360900
Si  8.722690 11.729900  6.534740
Si  0.816557  5.725830  3.965610
Si  8.758590  0.275916  1.485660
Si  4.920250  7.124180  9.423010
Si 11.795200  2.814710  9.692780
Si 11.512500  6.897640  0.016496
Si  9.296380  6.134040  7.209360
Si  3.042240  7.356890  2.558930
Si 11.117500 11.607800  5.018870
Si  1.796060  7.734990  0.005222
Si  7.975620  8.025020  3.383880
Si 11.514200  3.805100 12.614400
Si  0.279749 12.068700 12.631000
Si  7.054570  5.058530  9.321890
Si  9.503720  0.779989  9.001970
Si  4.828150 10.885700  5.088960
Si  6.416470  2.930720  2.699630
Si  6.854270 10.700000  2.615690
Si  2.458410 11.379900  8.629510
Si 12.406500 10.349700  2.581660
Si  7.653320  8.763170  6.353770
Si  5.853520  5.836220  2.271190
O 10.722800  1.886430  8.916350
O  1.500880  9.423290  5.434930
O  8.354440  5.342290  8.254500
O  3.831980  4.262840 11.453600
O  0.271254  3.276900  0.543582
O  6.638110 10.023700 11.972800
O  8.617410  5.301480  0.633296
O  7.973640  0.230729  5.826330
O  4.612540  9.554430  6.057080
O  6.570570  3.545980  8.977630
O  1.780310  2.403240  7.896770
O  1.509730  4.910930 10.330800
O  0.101897  6.937160  9.158800
O  1.814850  6.293380  2.829250
O  6.042410 10.784100  4.043790
O  9.723660 11.033800  5.481260
O  3.896800  6.752500  6.253610
O  8.111410  1.485180  8.706380
O  7.939860 11.904800  2.445650
O  6.524960  2.051480  4.073980
O  2.356800  6.321630 12.391400
O  9.529770  5.220320  5.808550
O  2.024560  8.891730 11.501500
O  0.667835  4.162930  3.784250
O  3.060620  2.173210 10.194700
O  7.266560  7.417790 12.487300
O  5.763940  4.384830  2.991900
O  5.546070 12.495900 12.488800
O  5.496710  2.087490  1.610610
O 12.090900  6.547420  3.847960
O 12.279800  8.781720  7.198860
O  1.929210  2.280560  2.445180
O  6.555970  2.354910  6.661640
O  7.840610 10.326600  6.830450
O  8.310370  8.657590 10.509300
O 10.546800  7.618170 11.613600
O  3.704450 11.737300  7.623580
O  3.186680  4.124310  6.327410
O  4.541850  6.740880  2.523260
O  1.620600 11.482800 11.984100
O 12.319000 11.026700  1.046880
O  7.522310  8.561380  4.768320
O  7.674010  1.037720  0.536381
O  5.488280  0.844558  8.414210
O  7.297240  5.325520 10.957400
O  9.486640  0.137435 10.475600
O  1.800580  0.083505  9.062780
O  9.603390  7.722990  3.568300
O  2.632810  8.208460  1.266960
O  3.697500  6.442260 10.208400
O 10.710900  0.516072  4.959350
O  4.022360 10.316600 12.298200
O  7.732110  9.323270  2.410540
O  0.436352  1.938630 10.039700
O 11.815700 12.286700 11.532200
O 11.453500 11.351000  3.501220
O  1.734950  2.142840  5.110290
O 12.400200  1.649360  3.238820
O  3.096700 10.768900  9.968080
O  1.518630 10.303100  7.912110
O 10.797400  6.832210  1.478310
O  5.257910 12.160200  5.918120
O 10.790600  3.034790  4.380040
O 12.222800  4.169250  8.853960
O  9.697700 12.175300  0.379334
O 11.667400  5.402070 12.251700
O 10.858000  6.498340  7.631030
O  7.855230  3.194400  1.993490
O  0.204558  7.759790  0.240761
O  3.772400  1.481980  6.475750
O 10.214300 10.312500 11.147000
O 11.732100  8.884400  2.709440
O  1.889330  5.642950  7.886380
O  2.749610  2.296850  0.025067
O  4.222060  8.079270  8.346800
O  8.549500  2.901520  5.231080
O  9.447880  4.731890  3.249840
O  5.372760  2.167200 11.763700
O 10.646800  8.511830  9.306310
O  9.644060 12.284100  7.826690
O  1.393150  6.017860  5.411530
O  0.629439  0.801338  0.652168
O 12.326800 11.207900  6.064680
O  6.076140  5.396150  0.715225
O  3.021360  8.525040  3.636530
O  7.079330  6.803990  2.803540
O  5.894870  6.064400  8.806750
O  8.701740  7.591530  6.732030
O  3.363730 10.993100  4.442470
O  5.585970 10.638400  1.609100
O 11.153900  3.053210 11.190600
O  9.870080  1.134470  2.414540
O 10.329500  3.528810  1.015070
O  1.272460 10.476100  2.949510
O  6.299690  8.059600  6.913990
O  5.764850  8.031780 10.442800
%ENDBLOCK POSITIONS_ABS

KPOINT_MP_SPACING: 0.03
KPOINT_MP_OFFSET: 0.25 0.25 0.25
